NAME 
OBJSENSE MAX
ROWS
 N  OBJ
 L  packing[0]
 L  packing[1]
 L  packing[2]
 L  packing[3]
 L  packing[4]
 L  packing[5]
 L  packing[6]
 L  packing[7]
 L  packing[8]
 L  packing[9]
 L  packing[10]
 L  packing[11]
 L  packing[12]
 L  packing[13]
 L  packing[14]
 L  packing[15]
 L  packing[16]
 L  packing[17]
 L  packing[18]
 L  packing[19]
 L  packing[20]
 L  packing[21]
 L  packing[22]
 L  packing[23]
 L  packing[24]
 L  packing[25]
 L  packing[26]
 L  packing[27]
 L  packing[28]
 L  packing[29]
 L  packing[30]
 L  packing[31]
 L  packing[32]
 L  packing[33]
 L  packing[34]
 L  packing[35]
 L  packing[36]
 L  packing[37]
 L  packing[38]
 L  packing[39]
 L  packing[40]
 L  packing[41]
 L  packing[42]
 L  packing[43]
 L  packing[44]
 L  packing[45]
 L  packing[46]
 L  packing[47]
 L  packing[48]
 L  packing[49]
 L  R53     
COLUMNS
    MARKER    'MARKER'                 'INTORG'
    x[1]      OBJ       95
    x[1]      packing[0]  193
    x[1]      packing[1]  91
    x[1]      packing[2]  170
    x[1]      packing[3]  92
    x[1]      packing[5]  55
    x[1]      packing[6]  140
    x[1]      packing[7]  161
    x[1]      packing[8]  73
    x[1]      packing[9]  67
    x[1]      packing[10]  25
    x[1]      packing[11]  30
    x[1]      packing[12]  165
    x[1]      packing[14]  11
    x[1]      packing[15]  116
    x[1]      packing[16]  89
    x[1]      packing[17]  95
    x[1]      packing[18]  114
    x[1]      packing[19]  141
    x[1]      packing[21]  141
    x[1]      packing[22]  4
    x[1]      packing[23]  100
    x[1]      packing[24]  136
    x[1]      packing[25]  192
    x[1]      packing[26]  11
    x[1]      packing[27]  130
    x[1]      packing[28]  120
    x[1]      packing[29]  194
    x[1]      packing[30]  139
    x[1]      packing[31]  177
    x[1]      packing[32]  131
    x[1]      packing[34]  191
    x[1]      packing[35]  125
    x[1]      packing[36]  17
    x[1]      packing[37]  136
    x[1]      packing[38]  81
    x[1]      packing[39]  69
    x[1]      packing[40]  44
    x[1]      packing[41]  170
    x[1]      packing[42]  177
    x[1]      packing[43]  181
    x[1]      packing[45]  105
    x[1]      packing[46]  89
    x[1]      packing[47]  193
    x[1]      packing[48]  144
    x[2]      OBJ       157
    x[2]      packing[1]  81
    x[2]      packing[2]  58
    x[2]      packing[3]  26
    x[2]      packing[4]  129
    x[2]      packing[5]  18
    x[2]      packing[6]  127
    x[2]      packing[7]  149
    x[2]      packing[9]  40
    x[2]      packing[10]  1
    x[2]      packing[14]  14
    x[2]      packing[16]  160
    x[2]      packing[17]  154
    x[2]      packing[18]  3
    x[2]      packing[19]  94
    x[2]      packing[20]  175
    x[2]      packing[22]  141
    x[2]      packing[23]  190
    x[2]      packing[25]  117
    x[2]      packing[26]  170
    x[2]      packing[27]  88
    x[2]      packing[28]  50
    x[2]      packing[29]  152
    x[2]      packing[30]  151
    x[2]      packing[31]  174
    x[2]      packing[33]  64
    x[2]      packing[35]  66
    x[2]      packing[41]  142
    x[2]      packing[43]  186
    x[2]      packing[44]  48
    x[2]      packing[45]  198
    x[2]      packing[46]  22
    x[2]      packing[48]  161
    x[2]      packing[49]  76
    x[2]      R53       1
    x[3]      OBJ       77
    x[3]      packing[0]  55
    x[3]      packing[1]  6
    x[3]      packing[2]  44
    x[3]      packing[3]  122
    x[3]      packing[4]  130
    x[3]      packing[5]  136
    x[3]      packing[6]  119
    x[3]      packing[7]  39
    x[3]      packing[8]  184
    x[3]      packing[10]  148
    x[3]      packing[12]  72
    x[3]      packing[13]  181
    x[3]      packing[14]  65
    x[3]      packing[15]  174
    x[3]      packing[17]  97
    x[3]      packing[19]  16
    x[3]      packing[20]  194
    x[3]      packing[22]  144
    x[3]      packing[24]  85
    x[3]      packing[25]  140
    x[3]      packing[26]  95
    x[3]      packing[27]  155
    x[3]      packing[28]  163
    x[3]      packing[29]  95
    x[3]      packing[30]  181
    x[3]      packing[31]  12
    x[3]      packing[32]  31
    x[3]      packing[33]  161
    x[3]      packing[34]  93
    x[3]      packing[35]  130
    x[3]      packing[36]  15
    x[3]      packing[37]  93
    x[3]      packing[38]  103
    x[3]      packing[41]  88
    x[3]      packing[42]  11
    x[3]      packing[44]  5
    x[3]      packing[47]  79
    x[3]      packing[49]  82
    x[4]      OBJ       69
    x[4]      packing[0]  103
    x[4]      packing[4]  161
    x[4]      packing[5]  170
    x[4]      packing[6]  139
    x[4]      packing[9]  187
    x[4]      packing[10]  60
    x[4]      packing[12]  61
    x[4]      packing[13]  112
    x[4]      packing[14]  149
    x[4]      packing[16]  183
    x[4]      packing[17]  45
    x[4]      packing[18]  121
    x[4]      packing[19]  198
    x[4]      packing[20]  16
    x[4]      packing[21]  39
    x[4]      packing[24]  80
    x[4]      packing[25]  49
    x[4]      packing[26]  160
    x[4]      packing[27]  104
    x[4]      packing[28]  195
    x[4]      packing[29]  51
    x[4]      packing[30]  84
    x[4]      packing[31]  90
    x[4]      packing[32]  165
    x[4]      packing[33]  42
    x[4]      packing[34]  108
    x[4]      packing[35]  85
    x[4]      packing[37]  168
    x[4]      packing[38]  122
    x[4]      packing[39]  109
    x[4]      packing[40]  92
    x[4]      packing[42]  146
    x[4]      packing[43]  41
    x[4]      packing[44]  139
    x[4]      packing[45]  136
    x[4]      packing[47]  156
    x[4]      packing[48]  105
    x[4]      packing[49]  131
    x[4]      R53       1
    x[5]      OBJ       44
    x[5]      packing[0]  45
    x[5]      packing[1]  114
    x[5]      packing[4]  95
    x[5]      packing[6]  95
    x[5]      packing[7]  12
    x[5]      packing[9]  42
    x[5]      packing[10]  80
    x[5]      packing[11]  3
    x[5]      packing[12]  52
    x[5]      packing[13]  11
    x[5]      packing[14]  199
    x[5]      packing[15]  61
    x[5]      packing[17]  173
    x[5]      packing[19]  31
    x[5]      packing[20]  165
    x[5]      packing[21]  154
    x[5]      packing[22]  141
    x[5]      packing[24]  94
    x[5]      packing[25]  16
    x[5]      packing[26]  176
    x[5]      packing[29]  34
    x[5]      packing[30]  51
    x[5]      packing[32]  163
    x[5]      packing[33]  47
    x[5]      packing[35]  149
    x[5]      packing[36]  41
    x[5]      packing[37]  108
    x[5]      packing[38]  23
    x[5]      packing[39]  3
    x[5]      packing[41]  82
    x[5]      packing[42]  144
    x[5]      packing[43]  189
    x[5]      packing[44]  131
    x[5]      packing[45]  88
    x[5]      packing[46]  60
    x[5]      packing[47]  133
    x[5]      packing[48]  48
    x[5]      packing[49]  169
    x[6]      OBJ       87
    x[6]      packing[0]  90
    x[6]      packing[2]  98
    x[6]      packing[3]  99
    x[6]      packing[5]  21
    x[6]      packing[6]  95
    x[6]      packing[9]  104
    x[6]      packing[10]  11
    x[6]      packing[13]  135
    x[6]      packing[14]  118
    x[6]      packing[15]  26
    x[6]      packing[16]  141
    x[6]      packing[17]  28
    x[6]      packing[18]  118
    x[6]      packing[19]  16
    x[6]      packing[20]  4
    x[6]      packing[21]  185
    x[6]      packing[22]  188
    x[6]      packing[25]  183
    x[6]      packing[26]  52
    x[6]      packing[27]  194
    x[6]      packing[29]  62
    x[6]      packing[30]  82
    x[6]      packing[31]  130
    x[6]      packing[32]  54
    x[6]      packing[35]  128
    x[6]      packing[38]  194
    x[6]      packing[39]  184
    x[6]      packing[40]  173
    x[6]      packing[41]  148
    x[6]      packing[42]  174
    x[6]      packing[44]  8
    x[6]      packing[45]  60
    x[6]      packing[46]  45
    x[6]      packing[48]  93
    x[6]      packing[49]  28
    x[7]      OBJ       44
    x[7]      packing[0]  180
    x[7]      packing[1]  97
    x[7]      packing[3]  87
    x[7]      packing[4]  70
    x[7]      packing[7]  97
    x[7]      packing[8]  82
    x[7]      packing[10]  149
    x[7]      packing[12]  165
    x[7]      packing[14]  34
    x[7]      packing[15]  47
    x[7]      packing[17]  111
    x[7]      packing[19]  138
    x[7]      packing[20]  144
    x[7]      packing[21]  198
    x[7]      packing[23]  18
    x[7]      packing[25]  70
    x[7]      packing[26]  132
    x[7]      packing[31]  148
    x[7]      packing[32]  21
    x[7]      packing[34]  174
    x[7]      packing[37]  175
    x[7]      packing[38]  26
    x[7]      packing[39]  23
    x[7]      packing[40]  148
    x[7]      packing[41]  61
    x[7]      packing[42]  159
    x[7]      packing[43]  56
    x[7]      packing[47]  192
    x[7]      packing[49]  54
    x[8]      OBJ       182
    x[8]      packing[0]  7
    x[8]      packing[1]  137
    x[8]      packing[2]  126
    x[8]      packing[3]  92
    x[8]      packing[4]  167
    x[8]      packing[6]  96
    x[8]      packing[9]  69
    x[8]      packing[10]  82
    x[8]      packing[11]  23
    x[8]      packing[13]  172
    x[8]      packing[14]  167
    x[8]      packing[15]  98
    x[8]      packing[17]  69
    x[8]      packing[18]  13
    x[8]      packing[24]  97
    x[8]      packing[25]  80
    x[8]      packing[29]  121
    x[8]      packing[30]  63
    x[8]      packing[31]  20
    x[8]      packing[32]  63
    x[8]      packing[33]  185
    x[8]      packing[34]  40
    x[8]      packing[35]  147
    x[8]      packing[37]  89
    x[8]      packing[38]  124
    x[8]      packing[39]  125
    x[8]      packing[40]  174
    x[8]      packing[41]  116
    x[8]      packing[42]  37
    x[8]      packing[43]  117
    x[8]      packing[46]  135
    x[8]      packing[48]  158
    x[8]      packing[49]  128
    x[9]      OBJ       8
    x[9]      packing[0]  81
    x[9]      packing[1]  181
    x[9]      packing[2]  7
    x[9]      packing[3]  95
    x[9]      packing[4]  173
    x[9]      packing[6]  78
    x[9]      packing[7]  23
    x[9]      packing[9]  159
    x[9]      packing[10]  169
    x[9]      packing[12]  94
    x[9]      packing[13]  42
    x[9]      packing[15]  127
    x[9]      packing[16]  102
    x[9]      packing[17]  182
    x[9]      packing[18]  94
    x[9]      packing[19]  90
    x[9]      packing[22]  166
    x[9]      packing[23]  104
    x[9]      packing[24]  33
    x[9]      packing[25]  136
    x[9]      packing[26]  92
    x[9]      packing[27]  44
    x[9]      packing[28]  145
    x[9]      packing[29]  23
    x[9]      packing[30]  111
    x[9]      packing[31]  199
    x[9]      packing[32]  62
    x[9]      packing[33]  17
    x[9]      packing[34]  36
    x[9]      packing[35]  142
    x[9]      packing[36]  40
    x[9]      packing[38]  113
    x[9]      packing[39]  80
    x[9]      packing[40]  108
    x[9]      packing[41]  87
    x[9]      packing[42]  18
    x[9]      packing[43]  32
    x[9]      packing[44]  166
    x[9]      packing[47]  11
    x[9]      packing[48]  160
    x[9]      packing[49]  91
    x[10]     OBJ       99
    x[10]     packing[0]  112
    x[10]     packing[2]  99
    x[10]     packing[3]  34
    x[10]     packing[4]  113
    x[10]     packing[5]  162
    x[10]     packing[6]  84
    x[10]     packing[8]  65
    x[10]     packing[9]  175
    x[10]     packing[10]  16
    x[10]     packing[11]  89
    x[10]     packing[12]  68
    x[10]     packing[13]  34
    x[10]     packing[14]  185
    x[10]     packing[15]  141
    x[10]     packing[16]  51
    x[10]     packing[17]  86
    x[10]     packing[18]  131
    x[10]     packing[20]  50
    x[10]     packing[21]  136
    x[10]     packing[22]  148
    x[10]     packing[23]  88
    x[10]     packing[24]  68
    x[10]     packing[25]  47
    x[10]     packing[26]  19
    x[10]     packing[27]  191
    x[10]     packing[28]  165
    x[10]     packing[29]  100
    x[10]     packing[30]  9
    x[10]     packing[31]  161
    x[10]     packing[33]  43
    x[10]     packing[34]  51
    x[10]     packing[35]  42
    x[10]     packing[36]  86
    x[10]     packing[38]  30
    x[10]     packing[39]  183
    x[10]     packing[40]  39
    x[10]     packing[41]  186
    x[10]     packing[42]  130
    x[10]     packing[43]  14
    x[10]     packing[44]  58
    x[10]     packing[45]  155
    x[10]     packing[47]  42
    x[10]     packing[48]  181
    x[10]     packing[49]  14
    x[11]     OBJ       138
    x[11]     packing[0]  30
    x[11]     packing[1]  13
    x[11]     packing[2]  199
    x[11]     packing[3]  89
    x[11]     packing[4]  122
    x[11]     packing[5]  58
    x[11]     packing[6]  154
    x[11]     packing[7]  173
    x[11]     packing[8]  159
    x[11]     packing[9]  1
    x[11]     packing[10]  123
    x[11]     packing[11]  30
    x[11]     packing[12]  100
    x[11]     packing[13]  12
    x[11]     packing[14]  116
    x[11]     packing[15]  30
    x[11]     packing[16]  173
    x[11]     packing[17]  41
    x[11]     packing[18]  38
    x[11]     packing[19]  41
    x[11]     packing[23]  58
    x[11]     packing[24]  3
    x[11]     packing[25]  79
    x[11]     packing[26]  31
    x[11]     packing[27]  168
    x[11]     packing[28]  66
    x[11]     packing[29]  172
    x[11]     packing[30]  197
    x[11]     packing[31]  90
    x[11]     packing[33]  20
    x[11]     packing[34]  39
    x[11]     packing[36]  131
    x[11]     packing[37]  183
    x[11]     packing[38]  150
    x[11]     packing[39]  11
    x[11]     packing[40]  77
    x[11]     packing[41]  172
    x[11]     packing[42]  192
    x[11]     packing[43]  122
    x[11]     packing[44]  49
    x[11]     packing[46]  54
    x[11]     packing[47]  54
    x[11]     packing[48]  43
    x[11]     R53       1
    x[12]     OBJ       176
    x[12]     packing[1]  133
    x[12]     packing[2]  164
    x[12]     packing[3]  64
    x[12]     packing[4]  78
    x[12]     packing[5]  73
    x[12]     packing[6]  90
    x[12]     packing[7]  160
    x[12]     packing[8]  171
    x[12]     packing[9]  14
    x[12]     packing[12]  78
    x[12]     packing[13]  143
    x[12]     packing[15]  52
    x[12]     packing[17]  25
    x[12]     packing[18]  135
    x[12]     packing[19]  149
    x[12]     packing[20]  178
    x[12]     packing[21]  28
    x[12]     packing[22]  38
    x[12]     packing[24]  97
    x[12]     packing[25]  36
    x[12]     packing[27]  120
    x[12]     packing[28]  5
    x[12]     packing[29]  147
    x[12]     packing[30]  75
    x[12]     packing[31]  19
    x[12]     packing[33]  149
    x[12]     packing[34]  15
    x[12]     packing[35]  5
    x[12]     packing[36]  186
    x[12]     packing[37]  134
    x[12]     packing[38]  98
    x[12]     packing[39]  68
    x[12]     packing[40]  190
    x[12]     packing[41]  189
    x[12]     packing[43]  180
    x[12]     packing[44]  160
    x[12]     packing[45]  167
    x[12]     packing[46]  130
    x[12]     packing[47]  39
    x[12]     packing[48]  185
    x[12]     packing[49]  26
    x[13]     OBJ       170
    x[13]     packing[0]  131
    x[13]     packing[1]  118
    x[13]     packing[2]  92
    x[13]     packing[3]  156
    x[13]     packing[4]  8
    x[13]     packing[5]  120
    x[13]     packing[6]  17
    x[13]     packing[7]  198
    x[13]     packing[8]  95
    x[13]     packing[11]  12
    x[13]     packing[14]  180
    x[13]     packing[15]  24
    x[13]     packing[16]  48
    x[13]     packing[17]  190
    x[13]     packing[18]  39
    x[13]     packing[20]  176
    x[13]     packing[21]  119
    x[13]     packing[22]  169
    x[13]     packing[23]  78
    x[13]     packing[24]  39
    x[13]     packing[25]  82
    x[13]     packing[26]  62
    x[13]     packing[27]  183
    x[13]     packing[29]  1
    x[13]     packing[31]  56
    x[13]     packing[32]  186
    x[13]     packing[33]  188
    x[13]     packing[35]  45
    x[13]     packing[38]  129
    x[13]     packing[39]  50
    x[13]     packing[40]  23
    x[13]     packing[41]  63
    x[13]     packing[42]  74
    x[13]     packing[43]  183
    x[13]     packing[44]  119
    x[13]     packing[45]  18
    x[13]     packing[46]  94
    x[13]     packing[49]  187
    x[13]     R53       1
    x[14]     OBJ       20
    x[14]     packing[0]  44
    x[14]     packing[1]  131
    x[14]     packing[2]  5
    x[14]     packing[4]  101
    x[14]     packing[5]  179
    x[14]     packing[9]  122
    x[14]     packing[10]  114
    x[14]     packing[12]  199
    x[14]     packing[13]  79
    x[14]     packing[14]  172
    x[14]     packing[18]  198
    x[14]     packing[23]  71
    x[14]     packing[24]  121
    x[14]     packing[25]  12
    x[14]     packing[26]  114
    x[14]     packing[27]  10
    x[14]     packing[28]  131
    x[14]     packing[29]  172
    x[14]     packing[31]  123
    x[14]     packing[32]  180
    x[14]     packing[34]  29
    x[14]     packing[36]  145
    x[14]     packing[37]  101
    x[14]     packing[38]  113
    x[14]     packing[39]  128
    x[14]     packing[40]  26
    x[14]     packing[41]  11
    x[14]     packing[42]  51
    x[14]     packing[43]  130
    x[14]     packing[44]  129
    x[14]     packing[45]  115
    x[14]     packing[46]  67
    x[14]     packing[47]  171
    x[14]     packing[48]  186
    x[14]     packing[49]  106
    x[15]     OBJ       147
    x[15]     packing[0]  189
    x[15]     packing[1]  54
    x[15]     packing[2]  92
    x[15]     packing[3]  136
    x[15]     packing[4]  161
    x[15]     packing[5]  197
    x[15]     packing[8]  122
    x[15]     packing[10]  192
    x[15]     packing[11]  49
    x[15]     packing[12]  75
    x[15]     packing[13]  185
    x[15]     packing[14]  196
    x[15]     packing[15]  138
    x[15]     packing[16]  142
    x[15]     packing[17]  11
    x[15]     packing[18]  119
    x[15]     packing[19]  15
    x[15]     packing[20]  46
    x[15]     packing[22]  105
    x[15]     packing[23]  62
    x[15]     packing[24]  61
    x[15]     packing[25]  116
    x[15]     packing[26]  13
    x[15]     packing[27]  21
    x[15]     packing[28]  34
    x[15]     packing[29]  34
    x[15]     packing[30]  149
    x[15]     packing[31]  73
    x[15]     packing[33]  97
    x[15]     packing[34]  183
    x[15]     packing[35]  98
    x[15]     packing[36]  60
    x[15]     packing[37]  177
    x[15]     packing[40]  107
    x[15]     packing[41]  123
    x[15]     packing[42]  44
    x[15]     packing[43]  6
    x[15]     packing[44]  183
    x[15]     packing[45]  63
    x[15]     packing[47]  158
    x[15]     packing[48]  181
    x[15]     packing[49]  10
    x[15]     R53       1
    x[16]     OBJ       23
    x[16]     packing[0]  165
    x[16]     packing[3]  104
    x[16]     packing[4]  114
    x[16]     packing[5]  193
    x[16]     packing[6]  156
    x[16]     packing[7]  78
    x[16]     packing[9]  80
    x[16]     packing[10]  196
    x[16]     packing[11]  129
    x[16]     packing[12]  171
    x[16]     packing[13]  171
    x[16]     packing[15]  161
    x[16]     packing[17]  92
    x[16]     packing[18]  10
    x[16]     packing[19]  164
    x[16]     packing[20]  183
    x[16]     packing[21]  69
    x[16]     packing[22]  54
    x[16]     packing[23]  63
    x[16]     packing[25]  194
    x[16]     packing[26]  16
    x[16]     packing[27]  103
    x[16]     packing[28]  141
    x[16]     packing[30]  34
    x[16]     packing[32]  79
    x[16]     packing[33]  189
    x[16]     packing[34]  79
    x[16]     packing[35]  123
    x[16]     packing[36]  109
    x[16]     packing[37]  126
    x[16]     packing[38]  185
    x[16]     packing[39]  28
    x[16]     packing[40]  194
    x[16]     packing[42]  111
    x[16]     packing[44]  147
    x[16]     packing[45]  58
    x[16]     packing[46]  108
    x[16]     packing[48]  138
    x[16]     packing[49]  108
    x[17]     OBJ       180
    x[17]     packing[3]  69
    x[17]     packing[4]  126
    x[17]     packing[6]  172
    x[17]     packing[9]  151
    x[17]     packing[10]  9
    x[17]     packing[11]  42
    x[17]     packing[12]  142
    x[17]     packing[13]  31
    x[17]     packing[15]  17
    x[17]     packing[16]  16
    x[17]     packing[18]  168
    x[17]     packing[19]  179
    x[17]     packing[20]  43
    x[17]     packing[22]  2
    x[17]     packing[23]  94
    x[17]     packing[25]  114
    x[17]     packing[26]  188
    x[17]     packing[29]  8
    x[17]     packing[30]  37
    x[17]     packing[31]  151
    x[17]     packing[32]  65
    x[17]     packing[34]  121
    x[17]     packing[35]  166
    x[17]     packing[37]  119
    x[17]     packing[38]  191
    x[17]     packing[39]  188
    x[17]     packing[40]  107
    x[17]     packing[41]  154
    x[17]     packing[42]  43
    x[17]     packing[43]  56
    x[17]     packing[44]  40
    x[17]     packing[45]  191
    x[17]     packing[46]  17
    x[17]     packing[47]  110
    x[17]     packing[49]  77
    x[17]     R53       1
    x[18]     OBJ       53
    x[18]     packing[0]  150
    x[18]     packing[1]  162
    x[18]     packing[3]  54
    x[18]     packing[4]  45
    x[18]     packing[5]  60
    x[18]     packing[6]  82
    x[18]     packing[7]  33
    x[18]     packing[8]  146
    x[18]     packing[10]  128
    x[18]     packing[11]  94
    x[18]     packing[12]  176
    x[18]     packing[14]  104
    x[18]     packing[15]  48
    x[18]     packing[16]  157
    x[18]     packing[17]  139
    x[18]     packing[18]  126
    x[18]     packing[23]  30
    x[18]     packing[25]  129
    x[18]     packing[28]  64
    x[18]     packing[29]  7
    x[18]     packing[30]  94
    x[18]     packing[31]  103
    x[18]     packing[32]  159
    x[18]     packing[33]  98
    x[18]     packing[34]  159
    x[18]     packing[36]  129
    x[18]     packing[38]  58
    x[18]     packing[41]  193
    x[18]     packing[42]  127
    x[18]     packing[43]  105
    x[18]     packing[44]  7
    x[18]     packing[47]  186
    x[18]     packing[48]  167
    x[18]     packing[49]  16
    x[19]     OBJ       17
    x[19]     packing[0]  159
    x[19]     packing[1]  118
    x[19]     packing[3]  50
    x[19]     packing[4]  108
    x[19]     packing[5]  84
    x[19]     packing[6]  129
    x[19]     packing[7]  50
    x[19]     packing[10]  1
    x[19]     packing[12]  38
    x[19]     packing[14]  4
    x[19]     packing[15]  18
    x[19]     packing[16]  94
    x[19]     packing[17]  163
    x[19]     packing[18]  39
    x[19]     packing[19]  2
    x[19]     packing[20]  11
    x[19]     packing[22]  129
    x[19]     packing[23]  37
    x[19]     packing[24]  28
    x[19]     packing[25]  51
    x[19]     packing[26]  128
    x[19]     packing[27]  126
    x[19]     packing[28]  81
    x[19]     packing[30]  71
    x[19]     packing[31]  161
    x[19]     packing[32]  132
    x[19]     packing[34]  30
    x[19]     packing[36]  9
    x[19]     packing[37]  161
    x[19]     packing[38]  20
    x[19]     packing[39]  172
    x[19]     packing[41]  136
    x[19]     packing[42]  68
    x[19]     packing[44]  52
    x[19]     packing[45]  43
    x[19]     packing[46]  153
    x[19]     packing[49]  150
    x[20]     OBJ       6
    x[20]     packing[0]  129
    x[20]     packing[2]  170
    x[20]     packing[3]  38
    x[20]     packing[4]  152
    x[20]     packing[5]  113
    x[20]     packing[6]  142
    x[20]     packing[7]  161
    x[20]     packing[8]  156
    x[20]     packing[9]  86
    x[20]     packing[10]  198
    x[20]     packing[11]  5
    x[20]     packing[12]  188
    x[20]     packing[14]  96
    x[20]     packing[15]  85
    x[20]     packing[17]  140
    x[20]     packing[19]  142
    x[20]     packing[20]  125
    x[20]     packing[21]  92
    x[20]     packing[23]  122
    x[20]     packing[24]  82
    x[20]     packing[25]  43
    x[20]     packing[26]  72
    x[20]     packing[27]  21
    x[20]     packing[28]  180
    x[20]     packing[29]  108
    x[20]     packing[30]  110
    x[20]     packing[32]  151
    x[20]     packing[33]  103
    x[20]     packing[34]  100
    x[20]     packing[36]  41
    x[20]     packing[38]  48
    x[20]     packing[39]  192
    x[20]     packing[40]  34
    x[20]     packing[42]  137
    x[20]     packing[45]  152
    x[20]     packing[46]  9
    x[20]     packing[49]  178
    MARKER    'MARKER'                 'INTEND'
RHS
    RHS1      packing[0]  932
    RHS1      packing[1]  718
    RHS1      packing[2]  662
    RHS1      packing[3]  704
    RHS1      packing[4]  1027
    RHS1      packing[5]  820
    RHS1      packing[6]  958
    RHS1      packing[7]  667
    RHS1      packing[8]  627
    RHS1      packing[9]  649
    RHS1      packing[10]  851
    RHS1      packing[11]  253
    RHS1      packing[12]  922
    RHS1      packing[13]  654
    RHS1      packing[14]  905
    RHS1      packing[15]  682
    RHS1      packing[16]  678
    RHS1      packing[17]  921
    RHS1      packing[18]  733
    RHS1      packing[19]  708
    RHS1      packing[20]  755
    RHS1      packing[21]  581
    RHS1      packing[22]  715
    RHS1      packing[23]  558
    RHS1      packing[24]  512
    RHS1      packing[25]  943
    RHS1      packing[26]  766
    RHS1      packing[27]  829
    RHS1      packing[28]  770
    RHS1      packing[29]  741
    RHS1      packing[30]  819
    RHS1      packing[31]  944
    RHS1      packing[32]  821
    RHS1      packing[33]  702
    RHS1      packing[34]  724
    RHS1      packing[35]  726
    RHS1      packing[36]  505
    RHS1      packing[37]  885
    RHS1      packing[38]  904
    RHS1      packing[39]  807
    RHS1      packing[40]  768
    RHS1      packing[41]  1061
    RHS1      packing[42]  922
    RHS1      packing[43]  799
    RHS1      packing[44]  721
    RHS1      packing[45]  775
    RHS1      packing[46]  492
    RHS1      packing[47]  762
    RHS1      packing[48]  975
    RHS1      packing[49]  816
    RHS1      R53       5
BOUNDS
 BV BND1      x[1]    
 BV BND1      x[2]    
 BV BND1      x[3]    
 BV BND1      x[4]    
 BV BND1      x[5]    
 BV BND1      x[6]    
 BV BND1      x[7]    
 BV BND1      x[8]    
 BV BND1      x[9]    
 BV BND1      x[10]   
 BV BND1      x[11]   
 BV BND1      x[12]   
 BV BND1      x[13]   
 BV BND1      x[14]   
 BV BND1      x[15]   
 BV BND1      x[16]   
 BV BND1      x[17]   
 BV BND1      x[18]   
 BV BND1      x[19]   
 BV BND1      x[20]   
ENDATA
